Ir O                                    
   1.00000000000000     
    12.7396001816000002    0.0000000000000000    0.0000000000000000
     0.0000000000000000    6.3994002341999998    0.0000000000000000
     0.0000000000000000    0.0000000000000000   34.0233993530000021
   Ir   O 
    32    68
Selective dynamics
Direct
  0.1251100000219836  0.4999999999843752  0.0360400000093435   F   F   F
  0.6251100000376795  0.4999999999843752  0.0360400000093435   F   F   F
  0.3751099999905847  0.4999999999843752  0.0360400000093435   F   F   F
  0.8751100000062806  0.4999999999843752  0.0360400000093435   F   F   F
  0.1250825000223728  0.0000000000000000  0.1300700000045651   F   F   F
  0.6250825000380686  0.0000000000000000  0.1300700000045651   F   F   F
  0.3750824999909739  0.0000000000000000  0.1300700000045651   F   F   F
  0.8750825000066769  0.0000000000000000  0.1300700000045651   F   F   F
  0.1250545751528148  0.4999999999843752  0.2244832315772194   T   T   T
  0.6250545751685179  0.4999999999843752  0.2244832315772194   T   T   T
  0.3750545751214158  0.4999999999843752  0.2244832315772194   T   T   T
  0.8750545751371190  0.4999999999843752  0.2244832315772194   T   T   T
  0.1250376070822737  0.0000000000000000  0.3187025447869767   T   T   T
  0.6250376070979695  0.0000000000000000  0.3187025447869767   T   T   T
  0.3750376070508749  0.0000000000000000  0.3187025447869767   T   T   T
  0.8750376070665706  0.0000000000000000  0.3187025447869767   T   T   T
  0.0001099999984291  0.0000000000000000  0.0360400000093435   F   F   F
  0.5001100000141321  0.0000000000000000  0.0360400000093435   F   F   F
  0.2501099999670373  0.0000000000000000  0.0360400000093435   F   F   F
  0.7501099999827332  0.0000000000000000  0.0360400000093435   F   F   F
  0.0000824999988254  0.4999999999843752  0.1300700000045651   F   F   F
  0.5000825000145213  0.4999999999843752  0.1300700000045651   F   F   F
  0.2500824999674265  0.4999999999843752  0.1300700000045651   F   F   F
  0.7500824999831224  0.4999999999843752  0.1300700000045651   F   F   F
  0.0000532334688701  0.0000000000000000  0.2244865058643681   T   T   T
  0.5000532334845732  0.0000000000000000  0.2244865058643681   T   T   T
  0.2500532334374713  0.0000000000000000  0.2244865058643681   T   T   T
  0.7500532334531743  0.0000000000000000  0.2244865058643681   T   T   T
  0.0000368938607922  0.4999999999843752  0.3210730162729424   T   T   T
  0.5000368938764881  0.4999999999843752  0.3210730162729424   T   T   T
  0.2500368938293933  0.4999999999843752  0.3210730162729424   T   T   T
  0.7500368938450892  0.4999999999843752  0.3210730162729424   T   T   T
  0.0000874999987559  0.4999999999843752  0.0720799999892918   F   F   F
  0.5000875000144518  0.4999999999843752  0.0720799999892918   F   F   F
  0.2500874999673570  0.4999999999843752  0.0720799999892918   F   F   F
  0.7500874999830529  0.4999999999843752  0.0720799999892918   F   F   F
  0.0000599999991451  0.0000000000000000  0.1661100000139086   F   F   F
  0.5000600000148410  0.0000000000000000  0.1661100000139086   F   F   F
  0.2500599999677462  0.0000000000000000  0.1661100000139086   F   F   F
  0.7500599999834492  0.0000000000000000  0.1661100000139086   F   F   F
  0.0000538429499606  0.4999999999843752  0.2607458846673060   T   T   T
  0.5000538429656636  0.4999999999843752  0.2607458846673060   T   T   T
  0.2500538429185689  0.4999999999843752  0.2607458846673060   T   T   T
  0.7500538429342647  0.4999999999843752  0.2607458846673060   T   T   T
  0.0000373057238786  0.0000000000000000  0.3531246803216654   T   T   T
  0.5000373057395745  0.0000000000000000  0.3531246803216654   T   T   T
  0.2500373056924797  0.0000000000000000  0.3531246803216654   T   T   T
  0.7500373057081756  0.0000000000000000  0.3531246803216654   T   T   T
  0.1251100000219836  0.1916200000191566  0.0360400000093435   F   F   F
  0.6251100000376795  0.1916200000191566  0.0360400000093435   F   F   F
  0.3751099999905847  0.1916200000191566  0.0360400000093435   F   F   F
  0.8751100000062806  0.1916200000191566  0.0360400000093435   F   F   F
  0.1250825000223728  0.6916200000035317  0.1300700000045651   F   F   F
  0.6250825000380686  0.6916200000035317  0.1300700000045651   F   F   F
  0.3750824999909739  0.6916200000035317  0.1300700000045651   F   F   F
  0.8750825000066769  0.6916200000035317  0.1300700000045651   F   F   F
  0.1250543548380464  0.1919094540217968  0.2242339947264251   T   T   T
  0.6250543548537496  0.1919094540217968  0.2242339947264251   T   T   T
  0.3750543548066476  0.1919094540217968  0.2242339947264251   T   T   T
  0.8750543548223507  0.1919094540217968  0.2242339947264251   T   T   T
  0.1250379184434155  0.6910571104821908  0.3171890429204712   T   T   T
  0.6250379184591111  0.6910571104821908  0.3171890429204712   T   T   T
  0.3750379184120165  0.6910571104821908  0.3171890429204712   T   T   T
  0.8750379184277122  0.6910571104821908  0.3171890429204712   T   T   T
  0.0001349999980746  0.4999999999843752  0.0000000000000000   F   F   F
  0.5001350000137776  0.4999999999843752  0.0000000000000000   F   F   F
  0.2501349999666758  0.4999999999843752  0.0000000000000000   F   F   F
  0.7501349999823788  0.4999999999843752  0.0000000000000000   F   F   F
  0.0001074999984709  0.0000000000000000  0.0940299999952217   F   F   F
  0.5001075000141668  0.0000000000000000  0.0940299999952217   F   F   F
  0.2501074999670720  0.0000000000000000  0.0940299999952217   F   F   F
  0.7501074999827679  0.0000000000000000  0.0940299999952217   F   F   F
  0.0000600995804843  0.4999999999843752  0.1883634940448987   T   T   T
  0.5000600995961799  0.4999999999843752  0.1883634940448987   T   T   T
  0.2500600995490854  0.4999999999843752  0.1883634940448987   T   T   T
  0.7500600995647810  0.4999999999843752  0.1883634940448987   T   T   T
  0.0000400679362255  0.0000000000000000  0.2821815430666069   T   T   T
  0.5000400679519287  0.0000000000000000  0.2821815430666069   T   T   T
  0.2500400679048266  0.0000000000000000  0.2821815430666069   T   T   T
  0.7500400679205298  0.0000000000000000  0.2821815430666069   T   T   T
  0.1251100000219836  0.8083799999495866  0.0360400000093435   F   F   F
  0.6251100000376795  0.8083799999495866  0.0360400000093435   F   F   F
  0.3751099999905847  0.8083799999495866  0.0360400000093435   F   F   F
  0.8751100000062806  0.8083799999495866  0.0360400000093435   F   F   F
  0.1250825000223728  0.3083799999652186  0.1300700000045651   F   F   F
  0.6250825000380686  0.3083799999652186  0.1300700000045651   F   F   F
  0.3750824999909739  0.3083799999652186  0.1300700000045651   F   F   F
  0.8750825000066769  0.3083799999652186  0.1300700000045651   F   F   F
  0.1250543548380464  0.8080905459469463  0.2242339947264251   T   T   T
  0.6250543548537496  0.8080905459469463  0.2242339947264251   T   T   T
  0.3750543548066476  0.8080905459469463  0.2242339947264251   T   T   T
  0.8750543548223507  0.8080905459469463  0.2242339947264251   T   T   T
  0.1250379184434155  0.3089428894865594  0.3171890429204712   T   T   T
  0.6250379184591111  0.3089428894865594  0.3171890429204712   T   T   T
  0.3750379184120165  0.3089428894865594  0.3171890429204712   T   T   T
  0.8750379184277122  0.3089428894865594  0.3171890429204712   T   T   T
  0.0000305228256065  0.4999999999843752  0.3737082004892394   T   T   T
  0.5000305228413022  0.4999999999843752  0.3737082004892394   T   T   T
  0.2500305227942077  0.4999999999843752  0.3737082004892394   T   T   T
  0.7500305228099033  0.4999999999843752  0.3737082004892394   T   T   T
 
  0.00000000E+00  0.00000000E+00  0.00000000E+00
  0.00000000E+00  0.00000000E+00  0.00000000E+00
  0.00000000E+00  0.00000000E+00  0.00000000E+00
  0.00000000E+00  0.00000000E+00  0.00000000E+00
  0.00000000E+00  0.00000000E+00  0.00000000E+00
  0.00000000E+00  0.00000000E+00  0.00000000E+00
  0.00000000E+00  0.00000000E+00  0.00000000E+00
  0.00000000E+00  0.00000000E+00  0.00000000E+00
  0.00000000E+00  0.00000000E+00  0.00000000E+00
  0.00000000E+00  0.00000000E+00  0.00000000E+00
  0.00000000E+00  0.00000000E+00  0.00000000E+00
  0.00000000E+00  0.00000000E+00  0.00000000E+00
  0.00000000E+00  0.00000000E+00  0.00000000E+00
  0.00000000E+00  0.00000000E+00  0.00000000E+00
  0.00000000E+00  0.00000000E+00  0.00000000E+00
  0.00000000E+00  0.00000000E+00  0.00000000E+00
  0.00000000E+00  0.00000000E+00  0.00000000E+00
  0.00000000E+00  0.00000000E+00  0.00000000E+00
  0.00000000E+00  0.00000000E+00  0.00000000E+00
  0.00000000E+00  0.00000000E+00  0.00000000E+00
  0.00000000E+00  0.00000000E+00  0.00000000E+00
  0.00000000E+00  0.00000000E+00  0.00000000E+00
  0.00000000E+00  0.00000000E+00  0.00000000E+00
  0.00000000E+00  0.00000000E+00  0.00000000E+00
  0.00000000E+00  0.00000000E+00  0.00000000E+00
  0.00000000E+00  0.00000000E+00  0.00000000E+00
  0.00000000E+00  0.00000000E+00  0.00000000E+00
  0.00000000E+00  0.00000000E+00  0.00000000E+00
  0.00000000E+00  0.00000000E+00  0.00000000E+00
  0.00000000E+00  0.00000000E+00  0.00000000E+00
  0.00000000E+00  0.00000000E+00  0.00000000E+00
  0.00000000E+00  0.00000000E+00  0.00000000E+00
  0.00000000E+00  0.00000000E+00  0.00000000E+00
  0.00000000E+00  0.00000000E+00  0.00000000E+00
  0.00000000E+00  0.00000000E+00  0.00000000E+00
  0.00000000E+00  0.00000000E+00  0.00000000E+00
  0.00000000E+00  0.00000000E+00  0.00000000E+00
  0.00000000E+00  0.00000000E+00  0.00000000E+00
  0.00000000E+00  0.00000000E+00  0.00000000E+00
  0.00000000E+00  0.00000000E+00  0.00000000E+00
  0.00000000E+00  0.00000000E+00  0.00000000E+00
  0.00000000E+00  0.00000000E+00  0.00000000E+00
  0.00000000E+00  0.00000000E+00  0.00000000E+00
  0.00000000E+00  0.00000000E+00  0.00000000E+00
  0.00000000E+00  0.00000000E+00  0.00000000E+00
  0.00000000E+00  0.00000000E+00  0.00000000E+00
  0.00000000E+00  0.00000000E+00  0.00000000E+00
  0.00000000E+00  0.00000000E+00  0.00000000E+00
  0.00000000E+00  0.00000000E+00  0.00000000E+00
  0.00000000E+00  0.00000000E+00  0.00000000E+00
  0.00000000E+00  0.00000000E+00  0.00000000E+00
  0.00000000E+00  0.00000000E+00  0.00000000E+00
  0.00000000E+00  0.00000000E+00  0.00000000E+00
  0.00000000E+00  0.00000000E+00  0.00000000E+00
  0.00000000E+00  0.00000000E+00  0.00000000E+00
  0.00000000E+00  0.00000000E+00  0.00000000E+00
  0.00000000E+00  0.00000000E+00  0.00000000E+00
  0.00000000E+00  0.00000000E+00  0.00000000E+00
  0.00000000E+00  0.00000000E+00  0.00000000E+00
  0.00000000E+00  0.00000000E+00  0.00000000E+00
  0.00000000E+00  0.00000000E+00  0.00000000E+00
  0.00000000E+00  0.00000000E+00  0.00000000E+00
  0.00000000E+00  0.00000000E+00  0.00000000E+00
  0.00000000E+00  0.00000000E+00  0.00000000E+00
  0.00000000E+00  0.00000000E+00  0.00000000E+00
  0.00000000E+00  0.00000000E+00  0.00000000E+00
  0.00000000E+00  0.00000000E+00  0.00000000E+00
  0.00000000E+00  0.00000000E+00  0.00000000E+00
  0.00000000E+00  0.00000000E+00  0.00000000E+00
  0.00000000E+00  0.00000000E+00  0.00000000E+00
  0.00000000E+00  0.00000000E+00  0.00000000E+00
  0.00000000E+00  0.00000000E+00  0.00000000E+00
  0.00000000E+00  0.00000000E+00  0.00000000E+00
  0.00000000E+00  0.00000000E+00  0.00000000E+00
  0.00000000E+00  0.00000000E+00  0.00000000E+00
  0.00000000E+00  0.00000000E+00  0.00000000E+00
  0.00000000E+00  0.00000000E+00  0.00000000E+00
  0.00000000E+00  0.00000000E+00  0.00000000E+00
  0.00000000E+00  0.00000000E+00  0.00000000E+00
  0.00000000E+00  0.00000000E+00  0.00000000E+00
  0.00000000E+00  0.00000000E+00  0.00000000E+00
  0.00000000E+00  0.00000000E+00  0.00000000E+00
  0.00000000E+00  0.00000000E+00  0.00000000E+00
  0.00000000E+00  0.00000000E+00  0.00000000E+00
  0.00000000E+00  0.00000000E+00  0.00000000E+00
  0.00000000E+00  0.00000000E+00  0.00000000E+00
  0.00000000E+00  0.00000000E+00  0.00000000E+00
  0.00000000E+00  0.00000000E+00  0.00000000E+00
  0.00000000E+00  0.00000000E+00  0.00000000E+00
  0.00000000E+00  0.00000000E+00  0.00000000E+00
  0.00000000E+00  0.00000000E+00  0.00000000E+00
  0.00000000E+00  0.00000000E+00  0.00000000E+00
  0.00000000E+00  0.00000000E+00  0.00000000E+00
  0.00000000E+00  0.00000000E+00  0.00000000E+00
  0.00000000E+00  0.00000000E+00  0.00000000E+00
  0.00000000E+00  0.00000000E+00  0.00000000E+00
  0.00000000E+00  0.00000000E+00  0.00000000E+00
  0.00000000E+00  0.00000000E+00  0.00000000E+00
  0.00000000E+00  0.00000000E+00  0.00000000E+00
  0.00000000E+00  0.00000000E+00  0.00000000E+00
