Ir O  H                                 
   1.00000000000000     
    12.7396001820000002    0.0000000000000000    0.0000000000000000
     0.0000000000000000    6.3994002339999998    0.0000000000000000
     0.0000000000000000    0.0000000000000000   34.0233993530000021
   Ir   O    H 
    32    68     2
Selective dynamics
Direct
  0.1251098917728939  0.4999999817170391  0.0360399026351814   F   F   F
  0.6251098846298149  0.4999999817170391  0.0360399026351814   F   F   F
  0.3751098882013579  0.4999999817170391  0.0360399026351814   F   F   F
  0.8751098810582718  0.4999999817170391  0.0360399026351814   F   F   F
  0.1250824183832293  0.0000000000000000  0.1300698955470452   F   F   F
  0.6250824112401503  0.0000000000000000  0.1300698955470452   F   F   F
  0.3750824148116862  0.0000000000000000  0.1300698955470452   F   F   F
  0.8750824076686072  0.0000000000000000  0.1300698955470452   F   F   F
  0.1252460229275722  0.4999999817170391  0.2249131540459755   T   T   T
  0.6252460157844930  0.4999999817170391  0.2249131540459755   T   T   T
  0.3750089418362673  0.4999999817170391  0.2247434233362300   T   T   T
  0.8750089346931884  0.4999999817170391  0.2247434233362300   T   T   T
  0.1253668091642401 -0.0000000000000000  0.3188381048991610   T   T   T
  0.6253668020211613 -0.0000000000000000  0.3188381048991610   T   T   T
  0.3749217301485583 -0.0000000000000000  0.3192801494144900   T   T   T
  0.8749217230054793 -0.0000000000000000  0.3192801494144900   T   T   T
  0.0001098935586654  0.0000000000000000  0.0360399026351814   F   F   F
  0.5001098864155864  0.0000000000000000  0.0360399026351814   F   F   F
  0.2501098899871295  0.0000000000000000  0.0360399026351814   F   F   F
  0.7501098828440433  0.0000000000000000  0.0360399026351814   F   F   F
  0.0000824201690008  0.4999999817170391  0.1300698955470452   F   F   F
  0.5000824130259218  0.4999999817170391  0.1300698955470452   F   F   F
  0.2500824165974578  0.4999999817170391  0.1300698955470452   F   F   F
  0.7500824094543788  0.4999999817170391  0.1300698955470452   F   F   F
  0.0000753492675388 -0.0000000000000000  0.2246405838082101   T   T   T
  0.5000753564106248 -0.0000000000000000  0.2246405838082101   T   T   T
  0.2501114760642628 -0.0000000000000000  0.2245844006207912   T   T   T
  0.7501114689211839 -0.0000000000000000  0.2245844006207912   T   T   T
  0.0011423663444944  0.4999999817170391  0.3193387541546502   T   T   T
  0.5011423592014154  0.4999999817170391  0.3193387541546502   T   T   T
  0.2509301619153904  0.4999999817170391  0.3216424300714000   T   T   T
  0.7509301547723118  0.4999999817170391  0.3216424300714000   T   T   T
  0.0000871298929468  0.4999999817170391  0.0720800991857331   F   F   F
  0.5000871227498607  0.4999999817170391  0.0720800991857331   F   F   F
  0.2500871263214037  0.4999999817170391  0.0720800991857331   F   F   F
  0.7500871191783247  0.4999999817170391  0.0720800991857331   F   F   F
  0.0000596565032751  0.0000000000000000  0.1661100920975898   F   F   F
  0.5000596493601961  0.0000000000000000  0.1661100920975898   F   F   F
  0.2500596529317392  0.0000000000000000  0.1661100920975898   F   F   F
  0.7500596457886530  0.0000000000000000  0.1661100920975898   F   F   F
 -0.0004379158919676  0.4999999817170391  0.2609109915835770   T   T   T
  0.4995620912511117  0.4999999817170391  0.2609109915835770   T   T   T
  0.2505196760539957  0.4999999817170391  0.2614084058805179   T   T   T
  0.7505196689109168  0.4999999817170391  0.2614084058805179   T   T   T
  0.0010396432597482 -0.0000000000000000  0.3533418654279897   T   T   T
  0.5010396361166691 -0.0000000000000000  0.3533418654279897   T   T   T
  0.2496793524559795 -0.0000000000000000  0.3536367166074298   T   T   T
  0.7496793453129006 -0.0000000000000000  0.3536367166074298   T   T   T
  0.1251098917728939  0.1916195198238952  0.0360399026351814   F   F   F
  0.6251098846298149  0.1916195198238952  0.0360399026351814   F   F   F
  0.3751098882013579  0.1916195198238952  0.0360399026351814   F   F   F
  0.8751098810582718  0.1916195198238952  0.0360399026351814   F   F   F
  0.1250824183832293  0.6916195015409343  0.1300698955470452   F   F   F
  0.6250824112401503  0.6916195015409343  0.1300698955470452   F   F   F
  0.3750824148116862  0.6916195015409343  0.1300698955470452   F   F   F
  0.8750824076686072  0.6916195015409343  0.1300698955470452   F   F   F
  0.1249279865265486  0.1915589899384947  0.2242436452715694   T   T   T
  0.6249279793834694  0.1915589899384947  0.2242436452715694   T   T   T
  0.3752696335144970  0.1916368512722887  0.2242489781752345   T   T   T
  0.8752696263714109  0.1916368512722887  0.2242489781752345   T   T   T
  0.1258755492379710  0.6910849953361469  0.3169497308601269   T   T   T
  0.6258755420948845  0.6910849953361469  0.3169497308601269   T   T   T
  0.3749185408290303  0.6899015893475774  0.3192314195875848   T   T   T
  0.8749185336859514  0.6899015893475774  0.3192314195875848   T   T   T
  0.0001350120863606  0.4999999817170391  0.0000000000000000   F   F   F
  0.5001350049432816  0.4999999817170391  0.0000000000000000   F   F   F
  0.2501350085148246  0.4999999817170391  0.0000000000000000   F   F   F
  0.7501350013717385  0.4999999817170391  0.0000000000000000   F   F   F
  0.0001075386966960  0.0000000000000000  0.0940299929118638   F   F   F
  0.5001075315536170  0.0000000000000000  0.0940299929118638   F   F   F
  0.2501075351251529  0.0000000000000000  0.0940299929118638   F   F   F
  0.7501075279820739  0.0000000000000000  0.0940299929118638   F   F   F
  0.0002964599585820  0.4999999817170391  0.1886542974661211   T   T   T
  0.5002964528155029  0.4999999817170391  0.1886542974661211   T   T   T
  0.2500855755798399  0.4999999817170391  0.1885953198022417   T   T   T
  0.7500855684367614  0.4999999817170391  0.1885953198022417   T   T   T
  0.9997638797098553 -0.0000000000000000  0.2824357229975378   T   T   T
  0.4997638868529415 -0.0000000000000000  0.2824357229975378   T   T   T
  0.2503861737169149 -0.0000000000000000  0.2823668672285154   T   T   T
  0.7503861665738361 -0.0000000000000000  0.2823668672285154   T   T   T
  0.1251098917728939  0.8083804436101758  0.0360399026351814   F   F   F
  0.6251098846298149  0.8083804436101758  0.0360399026351814   F   F   F
  0.3751098882013579  0.8083804436101758  0.0360399026351814   F   F   F
  0.8751098810582718  0.8083804436101758  0.0360399026351814   F   F   F
  0.1250824183832293  0.3083804618931438  0.1300698955470452   F   F   F
  0.6250824112401503  0.3083804618931438  0.1300698955470452   F   F   F
  0.3750824148116862  0.3083804618931438  0.1300698955470452   F   F   F
  0.8750824076686072  0.3083804618931438  0.1300698955470452   F   F   F
  0.1249279865265486  0.8084409734955764  0.2242436452715694   T   T   T
  0.6249279793834694  0.8084409734955764  0.2242436452715694   T   T   T
  0.3752696335144970  0.8083631121617822  0.2242489781752345   T   T   T
  0.8752696263714109  0.8083631121617822  0.2242489781752345   T   T   T
  0.1258755492379710  0.3089149680979240  0.3169497308601269   T   T   T
  0.6258755420948845  0.3089149680979240  0.3169497308601269   T   T   T
  0.3749185408290303  0.3100983740864935  0.3192314195875848   T   T   T
  0.8749185336859514  0.3100983740864935  0.3192314195875848   T   T   T
  0.0010883796462603  0.4999999817170391  0.3761279609400209   T   T   T
  0.5010883867893391  0.4999999817170391  0.3761279609400209   T   T   T
  0.2398381205852779  0.4999999817170391  0.3739855322199661   T   T   T
  0.7398381134421989  0.4999999817170391  0.3739855322199661   T   T   T
  0.0738060150076863  0.4999999817170391  0.3860658582926900   T   T   T
  0.5738060078646078  0.4999999817170391  0.3860658582926900   T   T   T
 
  0.00000000E+00  0.00000000E+00  0.00000000E+00
  0.00000000E+00  0.00000000E+00  0.00000000E+00
  0.00000000E+00  0.00000000E+00  0.00000000E+00
  0.00000000E+00  0.00000000E+00  0.00000000E+00
  0.00000000E+00  0.00000000E+00  0.00000000E+00
  0.00000000E+00  0.00000000E+00  0.00000000E+00
  0.00000000E+00  0.00000000E+00  0.00000000E+00
  0.00000000E+00  0.00000000E+00  0.00000000E+00
  0.00000000E+00  0.00000000E+00  0.00000000E+00
  0.00000000E+00  0.00000000E+00  0.00000000E+00
  0.00000000E+00  0.00000000E+00  0.00000000E+00
  0.00000000E+00  0.00000000E+00  0.00000000E+00
  0.00000000E+00  0.00000000E+00  0.00000000E+00
  0.00000000E+00  0.00000000E+00  0.00000000E+00
  0.00000000E+00  0.00000000E+00  0.00000000E+00
  0.00000000E+00  0.00000000E+00  0.00000000E+00
  0.00000000E+00  0.00000000E+00  0.00000000E+00
  0.00000000E+00  0.00000000E+00  0.00000000E+00
  0.00000000E+00  0.00000000E+00  0.00000000E+00
  0.00000000E+00  0.00000000E+00  0.00000000E+00
  0.00000000E+00  0.00000000E+00  0.00000000E+00
  0.00000000E+00  0.00000000E+00  0.00000000E+00
  0.00000000E+00  0.00000000E+00  0.00000000E+00
  0.00000000E+00  0.00000000E+00  0.00000000E+00
  0.00000000E+00  0.00000000E+00  0.00000000E+00
  0.00000000E+00  0.00000000E+00  0.00000000E+00
  0.00000000E+00  0.00000000E+00  0.00000000E+00
  0.00000000E+00  0.00000000E+00  0.00000000E+00
  0.00000000E+00  0.00000000E+00  0.00000000E+00
  0.00000000E+00  0.00000000E+00  0.00000000E+00
  0.00000000E+00  0.00000000E+00  0.00000000E+00
  0.00000000E+00  0.00000000E+00  0.00000000E+00
  0.00000000E+00  0.00000000E+00  0.00000000E+00
  0.00000000E+00  0.00000000E+00  0.00000000E+00
  0.00000000E+00  0.00000000E+00  0.00000000E+00
  0.00000000E+00  0.00000000E+00  0.00000000E+00
  0.00000000E+00  0.00000000E+00  0.00000000E+00
  0.00000000E+00  0.00000000E+00  0.00000000E+00
  0.00000000E+00  0.00000000E+00  0.00000000E+00
  0.00000000E+00  0.00000000E+00  0.00000000E+00
  0.00000000E+00  0.00000000E+00  0.00000000E+00
  0.00000000E+00  0.00000000E+00  0.00000000E+00
  0.00000000E+00  0.00000000E+00  0.00000000E+00
  0.00000000E+00  0.00000000E+00  0.00000000E+00
  0.00000000E+00  0.00000000E+00  0.00000000E+00
  0.00000000E+00  0.00000000E+00  0.00000000E+00
  0.00000000E+00  0.00000000E+00  0.00000000E+00
  0.00000000E+00  0.00000000E+00  0.00000000E+00
  0.00000000E+00  0.00000000E+00  0.00000000E+00
  0.00000000E+00  0.00000000E+00  0.00000000E+00
  0.00000000E+00  0.00000000E+00  0.00000000E+00
  0.00000000E+00  0.00000000E+00  0.00000000E+00
  0.00000000E+00  0.00000000E+00  0.00000000E+00
  0.00000000E+00  0.00000000E+00  0.00000000E+00
  0.00000000E+00  0.00000000E+00  0.00000000E+00
  0.00000000E+00  0.00000000E+00  0.00000000E+00
  0.00000000E+00  0.00000000E+00  0.00000000E+00
  0.00000000E+00  0.00000000E+00  0.00000000E+00
  0.00000000E+00  0.00000000E+00  0.00000000E+00
  0.00000000E+00  0.00000000E+00  0.00000000E+00
  0.00000000E+00  0.00000000E+00  0.00000000E+00
  0.00000000E+00  0.00000000E+00  0.00000000E+00
  0.00000000E+00  0.00000000E+00  0.00000000E+00
  0.00000000E+00  0.00000000E+00  0.00000000E+00
  0.00000000E+00  0.00000000E+00  0.00000000E+00
  0.00000000E+00  0.00000000E+00  0.00000000E+00
  0.00000000E+00  0.00000000E+00  0.00000000E+00
  0.00000000E+00  0.00000000E+00  0.00000000E+00
  0.00000000E+00  0.00000000E+00  0.00000000E+00
  0.00000000E+00  0.00000000E+00  0.00000000E+00
  0.00000000E+00  0.00000000E+00  0.00000000E+00
  0.00000000E+00  0.00000000E+00  0.00000000E+00
  0.00000000E+00  0.00000000E+00  0.00000000E+00
  0.00000000E+00  0.00000000E+00  0.00000000E+00
  0.00000000E+00  0.00000000E+00  0.00000000E+00
  0.00000000E+00  0.00000000E+00  0.00000000E+00
  0.00000000E+00  0.00000000E+00  0.00000000E+00
  0.00000000E+00  0.00000000E+00  0.00000000E+00
  0.00000000E+00  0.00000000E+00  0.00000000E+00
  0.00000000E+00  0.00000000E+00  0.00000000E+00
  0.00000000E+00  0.00000000E+00  0.00000000E+00
  0.00000000E+00  0.00000000E+00  0.00000000E+00
  0.00000000E+00  0.00000000E+00  0.00000000E+00
  0.00000000E+00  0.00000000E+00  0.00000000E+00
  0.00000000E+00  0.00000000E+00  0.00000000E+00
  0.00000000E+00  0.00000000E+00  0.00000000E+00
  0.00000000E+00  0.00000000E+00  0.00000000E+00
  0.00000000E+00  0.00000000E+00  0.00000000E+00
  0.00000000E+00  0.00000000E+00  0.00000000E+00
  0.00000000E+00  0.00000000E+00  0.00000000E+00
  0.00000000E+00  0.00000000E+00  0.00000000E+00
  0.00000000E+00  0.00000000E+00  0.00000000E+00
  0.00000000E+00  0.00000000E+00  0.00000000E+00
  0.00000000E+00  0.00000000E+00  0.00000000E+00
  0.00000000E+00  0.00000000E+00  0.00000000E+00
  0.00000000E+00  0.00000000E+00  0.00000000E+00
  0.00000000E+00  0.00000000E+00  0.00000000E+00
  0.00000000E+00  0.00000000E+00  0.00000000E+00
  0.00000000E+00  0.00000000E+00  0.00000000E+00
  0.00000000E+00  0.00000000E+00  0.00000000E+00
  0.00000000E+00  0.00000000E+00  0.00000000E+00
  0.00000000E+00  0.00000000E+00  0.00000000E+00
